7,9	0,0	7,0	17,8	0,0	0,0	0,0	0,0	0,0	14,2
10,6	10,9	0,0	19,3	12,6	0,0	0,0	10,1	0,0	0,0
0,0	0,0	15,5	0,0	6,7	8,2	0,0	0,0	19,8	0,0
9,4	0,0	19,0	0,0	0,0	0,0	12,2	0,0	0,0	0,0
0,0	16,0	0,0	16,2	12,6	0,0	0,0	17,3	0,0	0,0
0,0	19,0	11,5	0,0	14,1	14,8	0,0	0,0	5,1	0,0
0,0	15,7	0,0	10,4	0,0	0,0	14,6	0,0	0,0	16,0
18,6	0,0	18,7	0,0	0,0	0,0	0,0	0,0	0,0	6,7
0,0	18,5	0,0	7,8	11,7	0,0	0,0	19,7	0,0	0,0
0,0	0,0	10,1	0,0	0,0	14,5	17,3	0,0	0,0	11,1
									
3,0	5,0	3,7	3,5	4,2	2,9	4,1	3,8	2,6	3,5
